c This is the enc3 file generate by sty
p cnf 278 519
 1 2 0
 -1 -2 0
 3 4 0
 -3 -4 0
 5 6 0
 -5 -6 0
 7 8 0
 -7 -8 0
 9 10 0
 -9 -10 0
 11 12 0
 -11 -12 0
 13 14 0
 -13 -14 0
 15 16 0
 -15 -16 0
 17 18 0
 -17 -18 0
 19 20 0
 -19 -20 0
 21 22 0
 -21 -22 0
 23 24 0
 -23 -24 0
 25 26 0
 -25 -26 0
 27 28 0
 -27 -28 0
 29 30 0
 -29 -30 0
 31 32 0
 -31 -32 0
 33 34 0
 -33 -34 0
 35 36 0
 -35 -36 0
 37 38 0
 -37 -38 0
 39 40 0
 -39 -40 0
 41 42 0
 -41 -42 0
 43 44 0
 -43 -44 0
 45 46 0
 -45 -46 0
 47 48 0
 -47 -48 0
 49 50 0
 -49 -50 0
 51 52 0
 -51 -52 0
 53 54 0
 -53 -54 0
 55 56 0
 -55 -56 0
 57 58 0
 -57 -58 0
 59 60 0
 -59 -60 0
 61 62 0
 -61 -62 0
 63 64 0
 -63 -64 0
 65 66 0
 -65 -66 0
 67 68 0
 -67 -68 0
 69 70 0
 -69 -70 0
 71 72 0
 -71 -72 0
 73 74 0
 -73 -74 0
 75 76 0
 -75 -76 0
 77 78 0
 -77 -78 0
 79 80 0
 -79 -80 0
 81 82 0
 -81 -82 0
 83 84 0
 -83 -84 0
 85 86 0
 -85 -86 0
 87 88 0
 -87 -88 0
 89 90 0
 -89 -90 0
 91 92 0
 -91 -92 0
 93 94 0
 -93 -94 0
 95 96 0
 -95 -96 0
 97 98 0
 -97 -98 0
 99 100 0
 -99 -100 0
 101 102 0
 -101 -102 0
 103 104 0
 -103 -104 0
 105 106 0
 -105 -106 0
 107 108 0
 -107 -108 0
 109 110 0
 -109 -110 0
 111 112 0
 -111 -112 0
 113 114 0
 -113 -114 0
 115 116 0
 -115 -116 0
 117 118 0
 -117 -118 0
 119 120 0
 -119 -120 0
 121 122 0
 -121 -122 0
 123 124 0
 -123 -124 0
 125 126 0
 -125 -126 0
 127 128 0
 -127 -128 0
 129 130 0
 -129 -130 0
 131 132 0
 -131 -132 0
 133 134 0
 -133 -134 0
 135 136 0
 -135 -136 0
 137 138 0
 -137 -138 0
 139 140 0
 -139 -140 0
 141 142 0
 -141 -142 0
 143 144 0
 -143 -144 0
 145 146 0
 -145 -146 0
 147 148 0
 -147 -148 0
 149 150 0
 -149 -150 0
 151 152 0
 -151 -152 0
 153 154 0
 -153 -154 0
 155 156 0
 -155 -156 0
 157 158 0
 -157 -158 0
 159 160 0
 -159 -160 0
 161 162 0
 -161 -162 0
 163 164 0
 -163 -164 0
 165 166 0
 -165 -166 0
 167 168 0
 -167 -168 0
 169 170 0
 -169 -170 0
 171 172 0
 -171 -172 0
 173 174 0
 -173 -174 0
 175 176 0
 -175 -176 0
 177 178 0
 -177 -178 0
 179 180 0
 -179 -180 0
 181 182 0
 -181 -182 0
 183 184 0
 -183 -184 0
 185 186 0
 -185 -186 0
 187 188 0
 -187 -188 0
 189 190 0
 -189 -190 0
 191 192 0
 -191 -192 0
 193 194 0
 -193 -194 0
 195 196 0
 -195 -196 0
 197 198 0
 -197 -198 0
 199 200 0
 -199 -200 0
 -2 201 0
 -1 202 0
 -4 -2 203 0
 -3 -1 204 0
 -4 -1 205 0
 -3 -2 206 0
 -5 -4 0
 -6 -3 0
 -7 -5 0
 -8 -6 0
 -9 -7 0
 -10 -8 0
 -11 -10 0
 -12 -9 0
 -13 -11 207 0
 -14 -12 208 0
 -13 -12 209 0
 -14 -11 210 0
 -15 -13 0
 -16 -14 0
 -17 -16 0
 -18 -15 0
 -19 -17 0
 -20 -18 0
 -21 -1 0
 -22 -2 0
 -24 -4 0
 -24 -21 0
 -23 -22 -3 0
 -25 -23 -5 0
 -25 -24 -6 0
 -26 -23 -6 0
 -26 -24 -5 0
 -27 -26 -8 0
 -28 -7 0
 -28 -25 0
 -29 -10 0
 -29 -28 0
 -30 -27 -9 0
 -32 -30 0
 -32 -11 0
 -31 -29 -12 0
 -34 -32 0
 -33 -31 0
 -35 -15 0
 -36 -16 0
 -38 -36 0
 -38 -17 0
 -37 -35 -18 0
 -39 -20 0
 -39 -38 0
 -40 -37 -19 0
 -42 -22 211 0
 -42 -21 212 0
 -41 -21 213 0
 -41 -22 214 0
 -43 -23 0
 -44 -24 0
 -46 -26 0
 -46 -43 0
 -45 -44 -25 0
 -48 -46 -28 0
 -48 -45 -27 0
 -47 -45 -28 0
 -47 -46 -27 0
 -50 -30 0
 -50 -47 0
 -49 -48 -29 0
 -51 -31 0
 -52 -32 0
 -53 -34 0
 -53 -51 0
 -54 -52 -33 0
 -56 -54 -36 0
 -55 -35 0
 -55 -53 0
 -57 -37 0
 -58 -38 0
 -60 -58 0
 -60 -39 0
 -59 -57 -40 0
 -61 -42 0
 -62 -41 0
 -64 -62 -44 0
 -64 -61 -43 0
 -63 -61 -44 0
 -63 -62 -43 0
 -65 -64 0
 -66 -63 -46 0
 -65 -45 0
 -67 -48 0
 -67 -66 0
 -68 -65 -47 0
 -69 -49 0
 -70 -50 0
 -72 -70 0
 -72 -51 0
 -71 -69 -52 0
 -74 -54 0
 -74 -71 0
 -73 -72 -53 0
 -75 -74 0
 -76 -73 -56 0
 -75 -55 0
 -78 -76 -58 0
 -77 -57 0
 -77 -75 0
 -80 -78 -60 0
 -79 -59 0
 -79 -77 0
 -81 -61 0
 -82 -62 0
 -83 -82 -64 0
 -84 -63 0
 -84 -81 0
 -85 -66 0
 -85 -83 0
 -86 -84 -65 0
 -87 -86 0
 -88 -85 0
 -89 -87 -69 215 0
 -89 -88 -69 216 0
 -89 -87 -70 217 0
 -90 -88 -70 218 0
 -89 -88 -70 219 0
 -90 -87 -70 220 0
 -90 -88 -69 221 0
 -90 -87 -69 222 0
 -91 -71 0
 -92 -72 0
 -94 -92 -74 0
 -93 -73 0
 -93 -91 0
 -95 -75 0
 -96 -76 0
 -97 -78 0
 -98 -77 0
 -99 -97 -79 0
 -99 -98 -80 0
 -100 -97 -80 0
 -100 -98 -79 0
 -101 -81 0
 -102 -82 0
 -104 -102 -84 223 0
 -104 -102 -83 224 0
 -104 -101 -83 225 0
 -103 -101 -84 226 0
 -104 -101 -84 227 0
 -103 -101 -83 228 0
 -103 -102 -83 229 0
 -103 -102 -84 230 0
 -106 -86 0
 -106 -103 0
 -105 -104 -85 0
 -107 -106 -88 0
 -108 -87 0
 -108 -105 0
 -109 -108 -89 231 0
 -110 -107 -89 232 0
 -109 -108 -90 233 0
 -110 -107 -90 234 0
 -109 -107 -90 235 0
 -110 -108 -90 236 0
 -109 -107 -89 237 0
 -110 -108 -89 238 0
 -111 -92 0
 -111 -109 0
 -112 -110 -91 0
 -113 -111 -93 0
 -114 -112 0
 -114 -94 0
 -115 -114 -96 0
 -116 -95 0
 -116 -113 0
 -117 -115 -98 239 0
 -117 -116 -98 240 0
 -118 -116 -97 241 0
 -117 -115 -97 242 0
 -118 -115 -97 243 0
 -117 -116 -97 244 0
 -118 -116 -98 245 0
 -118 -115 -98 246 0
 -120 -118 -99 247 0
 -119 -117 -100 248 0
 -120 -117 -99 249 0
 -119 -118 -100 250 0
 -120 -118 -100 251 0
 -119 -117 -99 252 0
 -120 -117 -100 253 0
 -119 -118 -99 254 0
 -121 -101 0
 -122 -102 0
 -123 -122 0
 -124 -121 -104 0
 -123 -103 0
 -125 -106 0
 -125 -124 0
 -126 -123 -105 0
 -128 -126 0
 -128 -107 0
 -127 -125 -108 0
 -130 -110 0
 -130 -127 0
 -129 -128 -109 0
 -131 -129 -111 0
 -131 -130 -112 0
 -132 -129 -112 0
 -132 -130 -111 0
 -134 -114 0
 -134 -131 0
 -133 -132 -113 0
 -136 -134 -115 255 0
 -136 -134 -116 256 0
 -135 -133 -116 257 0
 -135 -133 -115 258 0
 -136 -133 -115 259 0
 -136 -133 -116 260 0
 -135 -134 -116 261 0
 -135 -134 -115 262 0
 -137 -117 0
 -138 -118 0
 -140 -138 -120 0
 -140 -137 -119 0
 -139 -137 -120 0
 -139 -138 -119 0
 -141 -122 0
 -142 -121 0
 -144 -124 0
 -144 -141 0
 -143 -142 -123 0
 -145 -144 0
 -146 -143 0
 -147 -146 -128 0
 -148 -127 0
 -148 -145 0
 -149 -130 0
 -150 -129 0
 -152 -150 0
 -151 -149 0
 -153 -152 -134 0
 -154 -133 0
 -154 -151 0
 -156 -154 -136 0
 -156 -153 -135 0
 -155 -153 -136 0
 -155 -154 -135 0
 -157 -138 0
 -157 -156 0
 -158 -155 -137 0
 -159 -157 -139 0
 -160 -158 0
 -160 -140 0
 -161 -142 0
 -162 -141 0
 -163 -162 -143 263 0
 -164 -161 -143 264 0
 -163 -162 -144 265 0
 -163 -161 -144 266 0
 -164 -161 -144 267 0
 -164 -162 -144 268 0
 -163 -161 -143 269 0
 -164 -162 -143 270 0
 -165 -164 0
 -166 -163 -146 0
 -165 -145 0
 -167 -148 0
 -167 -165 0
 -168 -166 -147 0
 -169 -149 0
 -170 -150 0
 -171 -169 -151 271 0
 -172 -169 -152 272 0
 -172 -170 -151 273 0
 -171 -170 -152 274 0
 -172 -170 -152 275 0
 -171 -170 -151 276 0
 -171 -169 -152 277 0
 -172 -169 -151 278 0
 -173 -172 0
 -174 -171 0
 -175 -173 -155 0
 -176 -174 0
 -176 -156 0
 -177 -176 -158 0
 -178 -157 0
 -178 -175 0
 -180 -178 -160 0
 -180 -177 -159 0
 -179 -177 -160 0
 -179 -178 -159 0
 -181 -161 0
 -182 -162 0
 -184 -182 -164 0
 -183 -163 0
 -183 -181 0
 -185 -184 -166 0
 -186 -165 0
 -186 -183 0
 -187 -185 -167 0
 -187 -186 -168 0
 -188 -185 -168 0
 -188 -186 -167 0
 -189 -187 -169 0
 -190 -188 0
 -190 -170 0
 -191 -189 -171 0
 -192 -190 0
 -192 -172 0
 -193 -192 0
 -194 -191 0
 -196 -194 -176 0
 -196 -193 -175 0
 -195 -193 -176 0
 -195 -194 -175 0
 -198 -196 0
 -197 -195 0
 -200 -198 -180 0
 -199 -179 0
 -199 -197 0
